presolving:
(round 1, fast)       7957 del vars, 25466 del conss, 0 add conss, 5624 chg bounds, 32831 chg sides, 27346 chg coeffs, 0 upgd conss, 0 impls, 7275 clqs
(round 2, fast)       8016 del vars, 28145 del conss, 0 add conss, 5624 chg bounds, 32874 chg sides, 27388 chg coeffs, 0 upgd conss, 0 impls, 7230 clqs
(round 3, fast)       8044 del vars, 28167 del conss, 0 add conss, 5624 chg bounds, 35986 chg sides, 30500 chg coeffs, 0 upgd conss, 0 impls, 7227 clqs
(round 4, exhaustive) 8044 del vars, 28914 del conss, 0 add conss, 5715 chg bounds, 37975 chg sides, 32489 chg coeffs, 0 upgd conss, 0 impls, 7227 clqs
(round 5, fast)       8048 del vars, 28924 del conss, 0 add conss, 5715 chg bounds, 38131 chg sides, 32645 chg coeffs, 0 upgd conss, 4 impls, 7223 clqs
(round 6, exhaustive) 8051 del vars, 28930 del conss, 0 add conss, 5740 chg bounds, 38131 chg sides, 32645 chg coeffs, 22283 upgd conss, 4 impls, 7223 clqs
(round 7, fast)       8051 del vars, 28930 del conss, 0 add conss, 5740 chg bounds, 38169 chg sides, 32683 chg coeffs, 22283 upgd conss, 4895 impls, 7223 clqs
(round 8, medium)     8305 del vars, 29335 del conss, 0 add conss, 5740 chg bounds, 38169 chg sides, 32683 chg coeffs, 22283 upgd conss, 5145 impls, 6866 clqs
(round 9, fast)       8305 del vars, 29438 del conss, 0 add conss, 5740 chg bounds, 38169 chg sides, 32683 chg coeffs, 22283 upgd conss, 5145 impls, 6866 clqs
   (1.4s) probing: 590/11771 (5.0%) - 0 fixings, 0 aggregations, 756 implications, 0 bound changes
   (1.4s) probing aborted: 50/50 successive totally useless probings
   Deactivated symmetry handling methods, since SCIP was built without symmetry detector (SYM=none).
presolving (10 rounds: 10 fast, 4 medium, 3 exhaustive):
 8305 deleted vars, 29445 deleted constraints, 0 added constraints, 5740 tightened bounds, 0 added holes, 38169 changed sides, 32683 changed coefficients
 5470 implications, 7294 cliques
presolved problem has 16417 variables (11771 bin, 0 int, 0 impl, 4646 cont) and 41774 constraints
   4913 constraints of type <varbound>
   6866 constraints of type <setppc>
  19988 constraints of type <linear>
  10007 constraints of type <logicor>
transformed objective value is always integral (scale: 1)
Presolving Time: 1.36

 time | node  | left  |LP iter|LP it/n|mem/heur|mdpt |vars |cons |rows |cuts |sepa|confs|strbr|  dualbound   | primalbound  |  gap   | compl. 
  2.0s|     1 |     0 |   749 |     - |   397M |   0 |  16k|  41k|  41k|   0 |  0 |   4 |   0 | 5.871615e+01 |      --      |    Inf | unknown
r 2.0s|     1 |     0 |   749 |     - |shifting|   0 |  16k|  41k|  41k|   0 |  0 |   4 |   0 | 5.871615e+01 | 3.013000e+04 |  Large | unknown
  2.2s|     1 |     0 |   789 |     - |   404M |   0 |  16k|  41k|  41k|   3 |  1 |   4 |   0 | 6.027871e+01 | 3.013000e+04 |  Large | unknown
i 2.2s|     1 |     0 |   950 |     - |  oneopt|   0 |  16k|  41k|  41k|   3 |  1 |   4 |   0 | 6.027871e+01 | 3.011300e+04 |  Large | unknown
  2.3s|     1 |     0 |   950 |     - |   406M |   0 |  16k|  41k|  41k|   3 |  1 |   4 |   0 | 6.027871e+01 | 3.011300e+04 |  Large | unknown
  2.4s|     1 |     0 |   972 |     - |   410M |   0 |  16k|  41k|  41k|   5 |  2 |   4 |   0 | 6.027984e+01 | 3.011300e+04 |  Large | unknown
  2.4s|     1 |     0 |  1010 |     - |   414M |   0 |  16k|  41k|  41k|   9 |  3 |   4 |   0 | 6.100018e+01 | 3.011300e+04 |  Large | unknown
  2.5s|     1 |     0 |  1012 |     - |   414M |   0 |  16k|  41k|  41k|  10 |  4 |   4 |   0 | 6.100018e+01 | 3.011300e+04 |  Large | unknown
r 2.5s|     1 |     0 |  1012 |     - |shifting|   0 |  16k|  41k|  41k|  10 |  4 |   4 |   0 | 6.100018e+01 | 3.011200e+04 |  Large | unknown
  2.6s|     1 |     0 |  1014 |     - |   418M |   0 |  16k|  41k|  41k|  11 |  5 |   4 |   0 | 6.100018e+01 | 3.011200e+04 |  Large | unknown
  2.6s|     1 |     0 |  1024 |     - |   422M |   0 |  16k|  41k|  41k|  12 |  6 |   4 |   0 | 6.100019e+01 | 3.011200e+04 |  Large | unknown
 10.5s|     1 |     0 |  2615 |     - |   432M |   0 |  16k|  41k|  41k|  12 |  8 |  27 |  50 | 6.200019e+01 | 3.011200e+04 |  Large | unknown
 10.5s|     1 |     0 |  2663 |     - |   432M |   0 |  16k|  41k|  41k|  15 |  9 |  27 |  50 | 6.267562e+01 | 3.011200e+04 |  Large | unknown
 10.6s|     1 |     0 |  2689 |     - |   432M |   0 |  16k|  41k|  41k|  17 | 10 |  27 |  50 | 6.341613e+01 | 3.011200e+04 |  Large | unknown
 11.9s|     1 |     2 |  2689 |     - |   432M |   0 |  16k|  41k|  41k|  17 | 10 |  27 |  68 | 6.358916e+01 | 3.011200e+04 |  Large | unknown
 time | node  | left  |LP iter|LP it/n|mem/heur|mdpt |vars |cons |rows |cuts |sepa|confs|strbr|  dualbound   | primalbound  |  gap   | compl. 
r29.1s|    12 |     9 |  3083 | 227.3 |shifting|  10 |  16k|  41k|  41k|  26 |  2 |  52 | 325 | 6.358916e+01 | 1.040000e+02 |  63.55%|   4.59%
i29.2s|    13 |     8 |  3083 | 208.3 |  oneopt|  10 |  16k|  41k|  41k|  26 |  0 |  52 | 325 | 6.358916e+01 | 9.100000e+01 |  43.11%|   4.62%
*56.2s|    41 |    14 |  3909 |  83.2 |    LP  |  17 |  16k|  39k|  41k|  38 |  1 | 127 | 685 | 6.358916e+01 | 9.000000e+01 |  41.53%|   7.11%
i56.2s|    41 |    13 |  3909 |  83.2 |  oneopt|  17 |  16k|  39k|  41k|  38 |  1 | 127 | 685 | 6.358916e+01 | 8.800000e+01 |  38.39%|   7.12%
 70.0s|   100 |     3 |  5418 |  48.8 |   476M |  17 |  16k|  39k|  41k|  50 | 10 | 258 | 847 | 7.262450e+01 | 8.800000e+01 |  21.17%|  92.78%

SCIP Status        : problem is solved [optimal solution found]
Solving Time (sec) : 70.09
Solving Nodes      : 104
Primal Bound       : +8.80000000000000e+01 (7 solutions)
Dual Bound         : +8.80000000000000e+01
Gap                : 0.00 %
Root classes: ['2', '3', '106', '107', '155', '158', '164', '165', '174', '179', '180', '181', '182', '183', '184', '185', '186', '187', '188', '189', '190', '191', '192', '193', '194', '195', '196', '197', '198', '199', '200', '201', '202', '203', '204', '205', '206', '207', '208', '209', '210', '211', '212', '213', '214', '215', '216', '217', '218', '219', '220', '221', '222', '223', '224', '225', '226', '227', '228', '229', '230', '231', '232', '233', '234', '235', '236', '237', '238', '239', '240', '241', '242', '243', '244', '245', '246', '247', '248', '249', '250', '251', '252', '253', '254', '255', '256', '257', '258', '259', '260', '261', '262', '263', '264', '265', '266', '267', '268', '269', '270', '271', '272', '273', '274']
Status: OPTIMAL
